(set-logic ALL)
(declare-fun seed0_T_1 () Bool)
(declare-fun seed0_T_2 () Bool)
(declare-fun seed0_T_3 () Bool)
(declare-fun seed0_T_4 () Bool)
(declare-fun seed0_var_0xINPUT_107339 () String)
(assert (and (or (= seed0_T_1 (= "-" seed0_var_0xINPUT_107339)) (or (str.< (str.++ seed0_var_0xINPUT_107339 "1SlEGVdziT") (str.++ seed0_var_0xINPUT_107339 "Gp82tPXk3FKZ")) (str.< (str.++ seed0_var_0xINPUT_107339 "mT85UWc0bX") (str.++ seed0_var_0xINPUT_107339 "fr57l6ez")))) (or (= seed0_T_2 (not seed0_T_1)) (xor (str.<= (str.++ seed0_var_0xINPUT_107339 "3jgORoYuEa4") (str.++ seed0_var_0xINPUT_107339 "Y1iIt2LzwUQDTX")) (str.prefixof (str.++ seed0_var_0xINPUT_107339 "QyaGKlTNxX0Um2OgADZL") (str.++ seed0_var_0xINPUT_107339 "czxiASe1aTPmK")))) (or seed0_T_2 (xor (str.prefixof (str.++ seed0_var_0xINPUT_107339 "") (str.++ seed0_var_0xINPUT_107339 "VENe")) (str.< (str.++ seed0_var_0xINPUT_107339 "cSFLH8oigQ3WzesE") (str.++ seed0_var_0xINPUT_107339 "NLdJzcD")))) (or (= seed0_T_3 (= "" seed0_var_0xINPUT_107339)) (not (str.< (str.++ seed0_var_0xINPUT_107339 "") (str.++ seed0_var_0xINPUT_107339 "KGyfj")))) (or (= seed0_T_4 (not seed0_T_3)) (not (str.< (str.++ seed0_var_0xINPUT_107339 "7TK") (str.++ seed0_var_0xINPUT_107339 "ZJnM0V5ubUeXLEY")))) (or seed0_T_4 (not (str.< (str.++ seed0_var_0xINPUT_107339 "ASg8Kn1iav") (str.++ seed0_var_0xINPUT_107339 "DxBHg58GMXF"))))))
(check-sat)
(exit)